NAME : single
TYPE : ATSP
DIMENSION : 7
EDGE_WEIGHT_TYPE : EXPLICIT
EDGE_WEIGHT_FORMAT : FULL_MATRIX
EDGE_WEIGHT_SECTION
0 125099 125109 125119 813 1198 1278 
0 0 147 167 125000 125000 125000 
0 147 0 102 125000 125000 125000 
0 167 102 0 125000 125000 125000 
0 125000 125000 125000 0 413 530 
0 125000 125000 125000 413 0 241 
0 125000 125000 125000 530 241 0 
EOF